data/general/moore90_2.txt
N 1
M 3
LC 1
LR 0
LR 1
LR 2
LO -1
OS 1
